benchmarks/VRPTW/TSPTW/ins/n150w60.003.txt
!! n150w60.003    56.17 1014


CUST NO.   XCOORD.   YCOORD.    DEMAND   READY TIME   DUE DATE   SERVICE TIME


    1      30.00      11.00       0.00       0.00    1063.00       0.00
    2       2.00       9.00       0.00     854.00     921.00       0.00
    3      20.00      33.00       0.00     264.00     305.00       0.00
    4      41.00       2.00       0.00     551.00     622.00       0.00
    5       2.00      24.00       0.00     286.00     392.00       0.00
    6      40.00      16.00       0.00     447.00     506.00       0.00
    7       8.00       8.00       0.00     336.00     408.00       0.00
    8      22.00      30.00       0.00     760.00     813.00       0.00
    9      50.00      14.00       0.00     450.00     554.00       0.00
   10      47.00       3.00       0.00     513.00     561.00       0.00
   11      26.00      23.00       0.00       0.00      30.00       0.00
   12      47.00      10.00       0.00     494.00     548.00       0.00
   13      38.00      18.00       0.00     411.00     490.00       0.00
   14      15.00       4.00       0.00     382.00     436.00       0.00
   15      43.00      23.00       0.00     421.00     535.00       0.00
   16      37.00       2.00       0.00     520.00     581.00       0.00
   17      11.00      41.00       0.00     186.00     264.00       0.00
   18      15.00      36.00       0.00     182.00     287.00       0.00
   19      19.00       5.00       0.00     385.00     411.00       0.00
   20      31.00      45.00       0.00      68.00     106.00       0.00
   21       1.00      37.00       0.00     746.00     777.00       0.00
   22      44.00      34.00       0.00      95.00     192.00       0.00
   23      16.00      15.00       0.00     419.00     435.00       0.00
   24      45.00       7.00       0.00     493.00     599.00       0.00
   25      38.00      26.00       0.00       0.00      73.00       0.00
   26       9.00      41.00       0.00     286.00     324.00       0.00
   27      48.00      21.00       0.00     442.00     482.00       0.00
   28      35.00      24.00       0.00       0.00      49.00       0.00
   29      48.00      21.00       0.00     475.00     542.00       0.00
   30       3.00      24.00       0.00     307.00     367.00       0.00
   31      30.00      45.00       0.00      63.00      93.00       0.00
   32      43.00      47.00       0.00     108.00     129.00       0.00
   33      49.00      26.00       0.00     463.00     558.00       0.00
   34      35.00      11.00       0.00     426.00     458.00       0.00
   35      15.00      26.00       0.00     258.00     302.00       0.00
   36      49.00       5.00       0.00     502.00     562.00       0.00
   37      31.00      48.00       0.00      37.00      97.00       0.00
   38      41.00      36.00       0.00      34.00     118.00       0.00
   39      35.00      44.00       0.00      33.00      90.00       0.00
   40       2.00      48.00       0.00     718.00     783.00       0.00
   41      47.00      39.00       0.00      91.00     125.00       0.00
   42      46.00      18.00       0.00     443.00     513.00       0.00
   43      21.00      11.00       0.00     412.00     474.00       0.00
   44       9.00       0.00       0.00     962.00    1040.00       0.00
   45      32.00      43.00       0.00      54.00     137.00       0.00
   46      21.00      43.00       0.00     277.00     335.00       0.00
   47      29.00      39.00       0.00     108.00     194.00       0.00
   48       8.00      32.00       0.00     325.00     358.00       0.00
   49      19.00      23.00       0.00     228.00     267.00       0.00
   50      30.00      30.00       0.00       0.00      69.00       0.00
   51       6.00      17.00       0.00     309.00     392.00       0.00
   52      37.00       3.00       0.00     546.00     630.00       0.00
   53      10.00       2.00       0.00     379.00     389.00       0.00
   54      20.00       2.00       0.00     349.00     464.00       0.00
   55      46.00      18.00       0.00     434.00     523.00       0.00
   56       4.00      27.00       0.00     288.00     351.00       0.00
   57      23.00      18.00       0.00     398.00     452.00       0.00
   58      11.00      34.00       0.00     226.00     247.00       0.00
   59      47.00      10.00       0.00     553.00     584.00       0.00
   60      37.00      49.00       0.00     161.00     186.00       0.00
   61      48.00      10.00       0.00     494.00     559.00       0.00
   62      19.00      18.00       0.00     233.00     276.00       0.00
   63       3.00       1.00       0.00     847.00     880.00       0.00
   64      40.00      45.00       0.00      66.00     104.00       0.00
   65      36.00       9.00       0.00     445.00     465.00       0.00
   66      38.00      48.00       0.00      41.00      97.00       0.00
   67      49.00      42.00       0.00     107.00     179.00       0.00
   68      36.00      40.00       0.00      65.00      94.00       0.00
   69      40.00       8.00       0.00     595.00     597.00       0.00
   70      47.00      17.00       0.00     437.00     518.00       0.00
   71      42.00       5.00       0.00     559.00     575.00       0.00
   72       9.00      45.00       0.00     210.00     239.00       0.00
   73      45.00      48.00       0.00      58.00     131.00       0.00
   74      30.00      45.00       0.00     126.00     172.00       0.00
   75      41.00      27.00       0.00       0.00      89.00       0.00
   76      32.00      11.00       0.00     445.00     498.00       0.00
   77      42.00      16.00       0.00     515.00     533.00       0.00
   78      24.00      11.00       0.00     778.00     877.00       0.00
   79      25.00      19.00       0.00     208.00     311.00       0.00
   80      47.00       4.00       0.00     542.00     611.00       0.00
   81      45.00      23.00       0.00     469.00     492.00       0.00
   82      21.00      19.00       0.00     239.00     279.00       0.00
   83      15.00       4.00       0.00     389.00     453.00       0.00
   84      34.00      47.00       0.00      53.00     141.00       0.00
   85       9.00      45.00       0.00     776.00     819.00       0.00
   86       7.00      20.00       0.00     326.00     352.00       0.00
   87      27.00      15.00       0.00       0.00       8.00       0.00
   88      24.00      34.00       0.00     263.00     309.00       0.00
   89      29.00      28.00       0.00       0.00      75.00       0.00
   90       1.00       8.00       0.00     815.00     908.00       0.00
   91      28.00      12.00       0.00       0.00      39.00       0.00
   92       7.00       7.00       0.00     823.00     867.00       0.00
   93      45.00      22.00       0.00     431.00     497.00       0.00
   94      33.00      38.00       0.00     657.00     707.00       0.00
   95      30.00      24.00       0.00       1.00      53.00       0.00
   96      36.00       5.00       0.00     592.00     609.00       0.00
   97      32.00      27.00       0.00       0.00      86.00       0.00
   98      15.00       7.00       0.00     368.00     416.00       0.00
   99      35.00       2.00       0.00     520.00     638.00       0.00
  100      18.00      35.00       0.00     246.00     316.00       0.00
  101      41.00       7.00       0.00     612.00     694.00       0.00
  102      11.00       5.00       0.00     357.00     386.00       0.00
  103      16.00      49.00       0.00     208.00     220.00       0.00
  104       4.00       7.00       0.00     840.00     888.00       0.00
  105      27.00      27.00       0.00       0.00      56.00       0.00
  106      48.00      39.00       0.00     691.00     714.00       0.00
  107      44.00      11.00       0.00     511.00     551.00       0.00
  108      24.00      37.00       0.00     147.00     177.00       0.00
  109      24.00       8.00       0.00     376.00     421.00       0.00
  110      19.00      21.00       0.00     245.00     294.00       0.00
  111      12.00      39.00       0.00     203.00     265.00       0.00
  112      12.00      25.00       0.00     199.00     244.00       0.00
  113      16.00      46.00       0.00     691.00     769.00       0.00
  114      29.00      26.00       0.00       0.00      76.00       0.00
  115      50.00      25.00       0.00     656.00     710.00       0.00
  116      23.00      44.00       0.00     157.00     212.00       0.00
  117      47.00       5.00       0.00     524.00     594.00       0.00
  118      43.00      20.00       0.00     429.00     508.00       0.00
  119      33.00       1.00       0.00     532.00     615.00       0.00
  120       4.00       4.00       0.00     807.00     874.00       0.00
  121      27.00      29.00       0.00     118.00     173.00       0.00
  122      17.00       5.00       0.00     375.00     406.00       0.00
  123      36.00       7.00       0.00     556.00     609.00       0.00
  124      43.00      32.00       0.00       5.00      85.00       0.00
  125      33.00      17.00       0.00     574.00     659.00       0.00
  126      27.00      34.00       0.00     148.00     193.00       0.00
  127      27.00      28.00       0.00       3.00      77.00       0.00
  128      27.00      19.00       0.00       0.00      38.00       0.00
  129       4.00      23.00       0.00     293.00     361.00       0.00
  130      47.00      47.00       0.00      52.00     150.00       0.00
  131      12.00       5.00       0.00     373.00     430.00       0.00
  132      35.00      43.00       0.00     175.00     213.00       0.00
  133      22.00      20.00       0.00     232.00     257.00       0.00
  134      11.00      18.00       0.00     337.00     361.00       0.00
  135      16.00       7.00       0.00     378.00     426.00       0.00
  136      26.00      46.00       0.00     151.00     195.00       0.00
  137       3.00      38.00       0.00     299.00     318.00       0.00
  138      26.00      29.00       0.00      19.00      65.00       0.00
  139      12.00      29.00       0.00     203.00     245.00       0.00
  140      21.00       0.00       0.00     898.00     953.00       0.00
  141      11.00      14.00       0.00     809.00     897.00       0.00
  142      27.00      10.00       0.00     435.00     454.00       0.00
  143      43.00      48.00       0.00      61.00     101.00       0.00
  144      34.00      25.00       0.00       0.00      71.00       0.00
  145      36.00      20.00       0.00     525.00     542.00       0.00
  146      24.00      47.00       0.00     170.00     229.00       0.00
  147      35.00      15.00       0.00     449.00     466.00       0.00
  148      35.00      32.00       0.00      92.00     199.00       0.00
  149      49.00      47.00       0.00      73.00     162.00       0.00
  150      45.00       8.00       0.00     601.00     642.00       0.00
  151      12.00      46.00       0.00     893.00     960.00       0.00
  999       0.00       0.00       0.00       0.00       0.00       0.00
